NAME:  test1
TYPE: AGTSP
COMMENT: gtsp tours
DIMENSION:  57
GTSP_SETS: 15
EDGE_WEIGHT_TYPE: EXPLICIT
EDGE_WEIGHT_FORMAT: FULL_MATRIX 
EDGE_WEIGHT_SECTION
999999	0	999999	999999	35598	35598	35590	999999	35618	35618	35618	35610	35612	35612	35612	35604	35624	35624	999999	999999	35601	35601	35601	35593	35638	35638	999999	999999	35612	35612	35612	35604	35590	35590	35582	999999	35625	35625	999999	999999	35605	35605	35605	35597	35624	35624	999999	999999	35596	35596	35588	999999	35613	35613	35613	35605	0
999999	999999	0	999999	35598	35598	35598	35590	35618	35618	35618	999999	35612	35612	35612	999999	35624	35624	35624	999999	35601	35601	35601	999999	35638	35638	35638	999999	35612	35612	35612	999999	35590	35590	35590	35582	35625	35625	35625	999999	35605	35605	35605	999999	35624	35624	35624	999999	35596	35596	35596	35588	35613	35613	35613	999999	0
999999	999999	999999	0	35598	35598	35598	35598	35618	35618	35618	35618	35612	35612	35612	35612	35624	35624	35624	35624	35601	35601	35601	35601	35638	35638	35638	35638	35612	35612	35612	35612	35590	35590	35590	35590	35625	35625	35625	35625	35605	35605	35605	35605	35624	35624	35624	35624	35596	35596	35596	35596	35613	35613	35613	35613	0
0	999999	999999	999999	35598	35590	999999	999999	35618	35618	35610	999999	35612	35612	35604	999999	35624	35624	35624	35616	35601	35601	35593	999999	35638	35638	35638	35630	35612	35612	35604	999999	35590	35582	999999	999999	35625	35625	35625	35617	35605	35605	35597	999999	35624	35624	35624	35616	35596	35588	999999	999999	35613	35613	35605	999999	0
35598	35598	35590	999999	999999	0	999999	999999	35621	35621	999999	999999	35597	35597	35589	999999	35603	35603	35603	35595	35611	35611	35611	35603	35621	35621	999999	999999	35615	35615	35615	35607	35609	35609	35609	35601	35619	35619	999999	999999	35590	35590	35582	999999	35615	35615	35615	35607	35590	35590	35582	999999	35596	35596	35588	999999	0
35598	35598	35598	35590	999999	999999	0	999999	35621	35621	35621	999999	35597	35597	35597	35589	35603	35603	35603	999999	35611	35611	35611	999999	35621	35621	35621	999999	35615	35615	35615	999999	35609	35609	35609	999999	35619	35619	35619	999999	35590	35590	35590	35582	35615	35615	35615	999999	35590	35590	35590	35582	35596	35596	35596	35588	0
35598	35598	35598	35598	999999	999999	999999	0	35621	35621	35621	35621	35597	35597	35597	35597	35603	35603	35603	35603	35611	35611	35611	35611	35621	35621	35621	35621	35615	35615	35615	35615	35609	35609	35609	35609	35619	35619	35619	35619	35590	35590	35590	35590	35615	35615	35615	35615	35590	35590	35590	35590	35596	35596	35596	35596	0
35598	35590	999999	999999	0	999999	999999	999999	35621	35621	35621	35613	35597	35589	999999	999999	35603	35603	35595	999999	35611	35611	35603	999999	35621	35621	35621	35613	35615	35615	35607	999999	35609	35609	35601	999999	35619	35619	35619	35611	35590	35582	999999	999999	35615	35615	35607	999999	35590	35582	999999	999999	35596	35588	999999	999999	0
35618	35618	35618	35610	35621	35621	999999	999999	999999	0	999999	999999	35612	35612	35612	35604	35635	35635	999999	999999	35596	35596	35588	999999	35624	35624	999999	999999	35583	35583	35575	999999	35614	35614	35614	35606	35593	35593	35585	999999	35633	35633	999999	999999	35600	35600	35600	35592	35608	35608	35608	35600	35614	35614	35614	35606	0
35618	35618	35618	999999	35621	35621	35621	999999	999999	999999	0	999999	35612	35612	35612	999999	35635	35635	35635	999999	35596	35596	35596	35588	35624	35624	35624	999999	35583	35583	35583	35575	35614	35614	35614	999999	35593	35593	35593	35585	35633	35633	35633	999999	35600	35600	35600	999999	35608	35608	35608	999999	35614	35614	35614	999999	0
35618	35618	35618	35618	35621	35621	35621	35621	999999	999999	999999	0	35612	35612	35612	35612	35635	35635	35635	35635	35596	35596	35596	35596	35624	35624	35624	35624	35583	35583	35583	35583	35614	35614	35614	35614	35593	35593	35593	35593	35633	35633	35633	35633	35600	35600	35600	35600	35608	35608	35608	35608	35614	35614	35614	35614	0
35618	35618	35610	999999	35621	35621	35621	35613	0	999999	999999	999999	35612	35612	35604	999999	35635	35635	35635	35627	35596	35588	999999	999999	35624	35624	35624	35616	35583	35575	999999	999999	35614	35614	35606	999999	35593	35585	999999	999999	35633	35633	35633	35625	35600	35600	35592	999999	35608	35608	35600	999999	35614	35614	35606	999999	0
35612	35612	35612	35604	35597	35597	35589	999999	35612	35612	35612	35604	999999	0	999999	999999	35600	35600	35600	35592	35612	35612	35612	35604	35603	35603	35603	35595	35609	35609	35609	35601	35619	35619	999999	999999	35604	35604	35604	35596	35606	35606	35606	35598	35598	35598	35590	999999	35594	35594	35586	999999	35579	35579	35571	999999	0
35612	35612	35612	999999	35597	35597	35597	35589	35612	35612	35612	999999	999999	999999	0	999999	35600	35600	35600	999999	35612	35612	35612	999999	35603	35603	35603	999999	35609	35609	35609	999999	35619	35619	35619	999999	35604	35604	35604	999999	35606	35606	35606	999999	35598	35598	35598	35590	35594	35594	35594	35586	35579	35579	35579	35571	0
35612	35612	35612	35612	35597	35597	35597	35597	35612	35612	35612	35612	999999	999999	999999	0	35600	35600	35600	35600	35612	35612	35612	35612	35603	35603	35603	35603	35609	35609	35609	35609	35619	35619	35619	35619	35604	35604	35604	35604	35606	35606	35606	35606	35598	35598	35598	35598	35594	35594	35594	35594	35579	35579	35579	35579	0
35612	35612	35604	999999	35597	35589	999999	999999	35612	35612	35604	999999	0	999999	999999	999999	35600	35600	35592	999999	35612	35612	35604	999999	35603	35603	35595	999999	35609	35609	35601	999999	35619	35619	35619	35611	35604	35604	35596	999999	35606	35606	35598	999999	35598	35590	999999	999999	35594	35586	999999	999999	35579	35571	999999	999999	0
35624	35624	999999	999999	35603	35603	35603	35595	35635	35635	999999	999999	35600	35600	35600	35592	999999	0	999999	999999	35633	35633	999999	999999	35608	35608	35608	35600	35631	35631	999999	999999	35635	35635	999999	999999	35626	35626	999999	999999	35602	35602	35602	35594	35618	35618	35618	35610	35611	35611	35611	35603	35598	35598	35590	999999	0
35624	35624	35624	999999	35603	35603	35603	999999	35635	35635	35635	999999	35600	35600	35600	999999	999999	999999	0	999999	35633	35633	35633	999999	35608	35608	35608	999999	35631	35631	35631	999999	35635	35635	35635	999999	35626	35626	35626	999999	35602	35602	35602	999999	35618	35618	35618	999999	35611	35611	35611	999999	35598	35598	35598	35590	0
35624	35624	35624	35624	35603	35603	35603	35603	35635	35635	35635	35635	35600	35600	35600	35600	999999	999999	999999	0	35633	35633	35633	35633	35608	35608	35608	35608	35631	35631	35631	35631	35635	35635	35635	35635	35626	35626	35626	35626	35602	35602	35602	35602	35618	35618	35618	35618	35611	35611	35611	35611	35598	35598	35598	35598	0
35624	35624	35624	35616	35603	35603	35595	999999	35635	35635	35635	35627	35600	35600	35592	999999	0	999999	999999	999999	35633	35633	35633	35625	35608	35608	35600	999999	35631	35631	35631	35623	35635	35635	35635	35627	35626	35626	35626	35618	35602	35602	35594	999999	35618	35618	35610	999999	35611	35611	35603	999999	35598	35590	999999	999999	0
35601	35601	35601	35593	35611	35611	35611	35603	35596	35596	35588	999999	35612	35612	35612	35604	35633	35633	999999	999999	999999	0	999999	999999	35633	35633	999999	999999	35591	35591	35583	999999	35595	35595	35587	999999	35608	35608	35608	35600	35623	35623	999999	999999	35612	35612	35612	35604	35599	35599	35599	35591	35614	35614	35614	35606	0
35601	35601	35601	999999	35611	35611	35611	999999	35596	35596	35596	35588	35612	35612	35612	999999	35633	35633	35633	999999	999999	999999	0	999999	35633	35633	35633	999999	35591	35591	35591	35583	35595	35595	35595	35587	35608	35608	35608	999999	35623	35623	35623	999999	35612	35612	35612	999999	35599	35599	35599	999999	35614	35614	35614	999999	0
35601	35601	35601	35601	35611	35611	35611	35611	35596	35596	35596	35596	35612	35612	35612	35612	35633	35633	35633	35633	999999	999999	999999	0	35633	35633	35633	35633	35591	35591	35591	35591	35595	35595	35595	35595	35608	35608	35608	35608	35623	35623	35623	35623	35612	35612	35612	35612	35599	35599	35599	35599	35614	35614	35614	35614	0
35601	35601	35593	999999	35611	35611	35603	999999	35596	35588	999999	999999	35612	35612	35604	999999	35633	35633	35633	35625	0	999999	999999	999999	35633	35633	35633	35625	35591	35583	999999	999999	35595	35587	999999	999999	35608	35608	35600	999999	35623	35623	35623	35615	35612	35612	35604	999999	35599	35599	35591	999999	35614	35614	35606	999999	0
35638	35638	999999	999999	35621	35621	999999	999999	35624	35624	999999	999999	35603	35603	35603	35595	35608	35608	35608	35600	35633	35633	999999	999999	999999	0	999999	999999	35624	35624	999999	999999	35644	35644	999999	999999	35609	35609	35609	35601	35628	35628	999999	999999	35601	35601	35601	35593	35619	35619	35619	35611	35602	35602	35602	35594	0
35638	35638	35638	999999	35621	35621	35621	999999	35624	35624	35624	999999	35603	35603	35603	999999	35608	35608	35608	999999	35633	35633	35633	999999	999999	999999	0	999999	35624	35624	35624	999999	35644	35644	35644	999999	35609	35609	35609	999999	35628	35628	35628	999999	35601	35601	35601	999999	35619	35619	35619	999999	35602	35602	35602	999999	0
35638	35638	35638	35638	35621	35621	35621	35621	35624	35624	35624	35624	35603	35603	35603	35603	35608	35608	35608	35608	35633	35633	35633	35633	999999	999999	999999	0	35624	35624	35624	35624	35644	35644	35644	35644	35609	35609	35609	35609	35628	35628	35628	35628	35601	35601	35601	35601	35619	35619	35619	35619	35602	35602	35602	35602	0
35638	35638	35638	35630	35621	35621	35621	35613	35624	35624	35624	35616	35603	35603	35595	999999	35608	35608	35600	999999	35633	35633	35633	35625	0	999999	999999	999999	35624	35624	35624	35616	35644	999999	999999	999999	35609	35609	35601	999999	35628	35628	35628	35620	35601	35601	35593	999999	35619	35619	35611	999999	35602	35602	35594	999999	0
35612	35612	35612	35604	35615	35615	35615	35607	35583	35583	35575	999999	35609	35609	35609	35601	35631	35631	999999	999999	35591	35591	35583	999999	35624	35624	999999	999999	999999	0	999999	999999	35609	35609	35609	35601	35595	35595	35587	999999	35628	35628	999999	999999	35601	35601	35601	35593	35603	35603	35603	35595	35611	35611	35611	35603	0
35612	35612	35612	999999	35615	35615	35615	999999	35583	35583	35583	35575	35609	35609	35609	999999	35631	35631	35631	999999	35591	35591	35591	35583	35624	35624	35624	999999	999999	999999	0	999999	35609	35609	35609	999999	35595	35595	35595	35587	35628	35628	35628	999999	35601	35601	35601	999999	35603	35603	35603	999999	35611	35611	35611	999999	0
35612	35612	35612	35612	35615	35615	35615	35615	35583	35583	35583	35583	35609	35609	35609	35609	35631	35631	35631	35631	35591	35591	35591	35591	35624	35624	35624	35624	999999	999999	999999	0	35609	35609	35609	35609	35595	35595	35595	35595	35628	35628	35628	35628	35601	35601	35601	35601	35603	35603	35603	35603	35611	35611	35611	35611	0
35612	35612	35604	999999	35615	35615	35607	999999	35583	35575	999999	999999	35609	35609	35601	999999	35631	35631	35631	35623	35591	35583	999999	999999	35624	35624	35624	35616	0	999999	999999	999999	35609	35609	35601	999999	35595	35587	999999	999999	35628	35628	35628	35620	35601	35601	35593	999999	35603	35603	35595	999999	35611	35611	35603	999999	0
35590	35590	35582	999999	35609	35609	35609	35601	35614	35614	35614	35606	35619	35619	999999	999999	35635	35635	999999	999999	35595	35595	35587	999999	35644	35644	999999	999999	35609	35609	35609	35601	999999	0	999999	999999	35625	35625	999999	999999	35618	35618	35618	35610	35626	35626	999999	999999	35602	35602	35602	35594	35621	35621	999999	999999	0
35590	35590	35590	35582	35609	35609	35609	999999	35614	35614	35614	999999	35619	35619	35619	999999	35635	35635	35635	999999	35595	35595	35595	35587	35644	35644	35644	999999	35609	35609	35609	999999	999999	999999	0	999999	35625	35625	35625	999999	35618	35618	35618	999999	35626	35626	35626	999999	35602	35602	35602	999999	35621	35621	35621	999999	0
35590	35590	35590	35590	35609	35609	35609	35609	35614	35614	35614	35614	35619	35619	35619	35619	35635	35635	35635	35635	35595	35595	35595	35595	35644	35644	35644	35644	35609	35609	35609	35609	999999	999999	999999	0	35625	35625	35625	35625	35618	35618	35618	35618	35626	35626	35626	35626	35602	35602	35602	35602	35621	35621	35621	35621	0
35590	35582	999999	999999	35609	35609	35601	999999	35614	35614	35606	999999	35619	35619	35619	35611	35635	35635	35635	35627	35595	35587	999999	999999	35644	999999	999999	999999	35609	35609	35601	999999	0	999999	999999	999999	35625	35625	35625	35617	35618	35618	35610	999999	35626	35626	35626	35618	35602	35602	35594	999999	35621	35621	35621	35613	0
35625	35625	999999	999999	35619	35619	999999	999999	35593	35593	35585	999999	35604	35604	35604	35596	35626	35626	999999	999999	35608	35608	35608	35600	35609	35609	35609	35601	35595	35595	35587	999999	35625	35625	999999	999999	999999	0	999999	999999	35631	35631	999999	999999	35585	35585	35577	999999	35609	35609	35609	35601	35606	35606	35606	35598	0
35625	35625	35625	999999	35619	35619	35619	999999	35593	35593	35593	35585	35604	35604	35604	999999	35626	35626	35626	999999	35608	35608	35608	999999	35609	35609	35609	999999	35595	35595	35595	35587	35625	35625	35625	999999	999999	999999	0	999999	35631	35631	35631	999999	35585	35585	35585	35577	35609	35609	35609	999999	35606	35606	35606	999999	0
35625	35625	35625	35625	35619	35619	35619	35619	35593	35593	35593	35593	35604	35604	35604	35604	35626	35626	35626	35626	35608	35608	35608	35608	35609	35609	35609	35609	35595	35595	35595	35595	35625	35625	35625	35625	999999	999999	999999	0	35631	35631	35631	35631	35585	35585	35585	35585	35609	35609	35609	35609	35606	35606	35606	35606	0
35625	35625	35625	35617	35619	35619	35619	35611	35593	35585	999999	999999	35604	35604	35596	999999	35626	35626	35626	35618	35608	35608	35600	999999	35609	35609	35601	999999	35595	35587	999999	999999	35625	35625	35625	35617	0	999999	999999	999999	35631	35631	35631	35623	35585	35577	999999	999999	35609	35609	35601	999999	35606	35606	35598	999999	0
35605	35605	35605	35597	35590	35590	35582	999999	35633	35633	999999	999999	35606	35606	35606	35598	35602	35602	35602	35594	35623	35623	999999	999999	35628	35628	999999	999999	35628	35628	999999	999999	35618	35618	35618	35610	35631	35631	999999	999999	999999	0	999999	999999	35626	35626	999999	999999	35602	35602	35602	35594	35605	35605	35605	35597	0
35605	35605	35605	999999	35590	35590	35590	35582	35633	35633	35633	999999	35606	35606	35606	999999	35602	35602	35602	999999	35623	35623	35623	999999	35628	35628	35628	999999	35628	35628	35628	999999	35618	35618	35618	999999	35631	35631	35631	999999	999999	999999	0	999999	35626	35626	35626	999999	35602	35602	35602	999999	35605	35605	35605	999999	0
35605	35605	35605	35605	35590	35590	35590	35590	35633	35633	35633	35633	35606	35606	35606	35606	35602	35602	35602	35602	35623	35623	35623	35623	35628	35628	35628	35628	35628	35628	35628	35628	35618	35618	35618	35618	35631	35631	35631	35631	999999	999999	999999	0	35626	35626	35626	35626	35602	35602	35602	35602	35605	35605	35605	35605	0
35605	35605	35597	999999	35590	35582	999999	999999	35633	35633	35633	35625	35606	35606	35598	999999	35602	35602	35594	999999	35623	35623	35623	35615	35628	35628	35628	35620	35628	35628	35628	35620	35618	35618	35610	999999	35631	35631	35631	35623	0	999999	999999	999999	35626	35626	35626	35618	35602	35602	35594	999999	35605	35605	35597	999999	0
35624	35624	999999	999999	35615	35615	35615	35607	35600	35600	35600	35592	35598	35598	35590	999999	35618	35618	35618	35610	35612	35612	35612	35604	35601	35601	35601	35593	35601	35601	35601	35593	35626	35626	999999	999999	35585	35585	35577	999999	35626	35626	999999	999999	999999	0	999999	999999	35607	35607	35607	35599	35599	35599	35599	35591	0
35624	35624	35624	999999	35615	35615	35615	999999	35600	35600	35600	999999	35598	35598	35598	35590	35618	35618	35618	999999	35612	35612	35612	999999	35601	35601	35601	999999	35601	35601	35601	999999	35626	35626	35626	999999	35585	35585	35585	35577	35626	35626	35626	999999	999999	999999	0	999999	35607	35607	35607	999999	35599	35599	35599	999999	0
35624	35624	35624	35624	35615	35615	35615	35615	35600	35600	35600	35600	35598	35598	35598	35598	35618	35618	35618	35618	35612	35612	35612	35612	35601	35601	35601	35601	35601	35601	35601	35601	35626	35626	35626	35626	35585	35585	35585	35585	35626	35626	35626	35626	999999	999999	999999	0	35607	35607	35607	35607	35599	35599	35599	35599	0
35624	35624	35624	35616	35615	35615	35607	999999	35600	35600	35592	999999	35598	35590	999999	999999	35618	35618	35610	999999	35612	35612	35604	999999	35601	35601	35593	999999	35601	35601	35593	999999	35626	35626	35626	35618	35585	35577	999999	999999	35626	35626	35626	35618	0	999999	999999	999999	35607	35607	35599	999999	35599	35599	35591	999999	0
35596	35596	35588	999999	35590	35590	35582	999999	35608	35608	35608	35600	35594	35594	35586	999999	35611	35611	35611	35603	35599	35599	35599	35591	35619	35619	35619	35611	35603	35603	35603	35595	35602	35602	35602	35594	35609	35609	35609	35601	35602	35602	35602	35594	35607	35607	35607	35599	999999	0	999999	999999	35595	35595	35587	999999	0
35596	35596	35596	35588	35590	35590	35590	35582	35608	35608	35608	999999	35594	35594	35594	35586	35611	35611	35611	999999	35599	35599	35599	999999	35619	35619	35619	999999	35603	35603	35603	999999	35602	35602	35602	999999	35609	35609	35609	999999	35602	35602	35602	999999	35607	35607	35607	999999	999999	999999	0	999999	35595	35595	35595	35587	0
35596	35596	35596	35596	35590	35590	35590	35590	35608	35608	35608	35608	35594	35594	35594	35594	35611	35611	35611	35611	35599	35599	35599	35599	35619	35619	35619	35619	35603	35603	35603	35603	35602	35602	35602	35602	35609	35609	35609	35609	35602	35602	35602	35602	35607	35607	35607	35607	999999	999999	999999	0	35595	35595	35595	35595	0
35596	35588	999999	999999	35590	35582	999999	999999	35608	35608	35600	999999	35594	35586	999999	999999	35611	35611	35603	999999	35599	35599	35591	999999	35619	35619	35611	999999	35603	35603	35595	999999	35602	35602	35594	999999	35609	35609	35601	999999	35602	35602	35594	999999	35607	35607	35599	999999	0	999999	999999	999999	35595	35587	999999	999999	0
35613	35613	35613	35605	35596	35596	35588	999999	35614	35614	35614	35606	35579	35579	35571	999999	35598	35598	35590	999999	35614	35614	35614	35606	35602	35602	35602	35594	35611	35611	35611	35603	35621	35621	999999	999999	35606	35606	35606	35598	35605	35605	35605	35597	35599	35599	35599	35591	35595	35595	35587	999999	999999	0	999999	999999	0
35613	35613	35613	999999	35596	35596	35596	35588	35614	35614	35614	999999	35579	35579	35579	35571	35598	35598	35598	35590	35614	35614	35614	999999	35602	35602	35602	999999	35611	35611	35611	999999	35621	35621	35621	999999	35606	35606	35606	999999	35605	35605	35605	999999	35599	35599	35599	999999	35595	35595	35595	35587	999999	999999	0	999999	0
35613	35613	35613	35613	35596	35596	35596	35596	35614	35614	35614	35614	35579	35579	35579	35579	35598	35598	35598	35598	35614	35614	35614	35614	35602	35602	35602	35602	35611	35611	35611	35611	35621	35621	35621	35621	35606	35606	35606	35606	35605	35605	35605	35605	35599	35599	35599	35599	35595	35595	35595	35595	999999	999999	999999	0	0
35613	35613	35605	999999	35596	35588	999999	999999	35614	35614	35606	999999	35579	35571	999999	999999	35598	35590	999999	999999	35614	35614	35606	999999	35602	35602	35594	999999	35611	35611	35603	999999	35621	35621	35621	35613	35606	35606	35598	999999	35605	35605	35597	999999	35599	35599	35591	999999	35595	35587	999999	999999	0	999999	999999	999999	0
35569	999999	999999	999999	35569	999999	999999	999999	35569	999999	999999	999999	35569	999999	999999	999999	35569	999999	999999	999999	35569	999999	999999	999999	35569	999999	999999	999999	35569	999999	999999	999999	35569	999999	999999	999999	35569	999999	999999	999999	35569	999999	999999	999999	35569	999999	999999	999999	35569	999999	999999	999999	35569	999999	999999	999999	999999
GTSP_SET_SECTION:
1 1 2 3 4 -1
2 5 6 7 8 -1
3 9 10 11 12 -1
4 13 14 15 16 -1
5 17 18 19 20 -1
6 21 22 23 24 -1
7 25 26 27 28 -1
8 29 30 31 32 -1
9 33 34 35 36 -1
10 37 38 39 40 -1
11 41 42 43 44 -1
12 45 46 47 48 -1
13 49 50 51 52 -1
14 53 54 55 56 -1
15 57 -1
EOF